p cnf 386 460
17 -19 -4 21 22 0
17 -19 -4 21 -22 0
17 -19 -4 -21 23 0
17 -19 -4 -21 -23 0
-8 -12 -19 24 25 0
-8 -12 -19 24 -25 0
-8 -12 -19 -24 26 0
-8 -12 -19 -24 -26 0
3 -10 -14 27 28 0
3 -10 -14 27 -28 0
3 -10 -14 -27 29 0
3 -10 -14 -27 -29 0
10 2 -9 30 31 0
10 2 -9 30 -31 0
10 2 -9 -30 32 0
10 2 -9 -30 -32 0
-11 5 12 33 34 0
-11 5 12 33 -34 0
-11 5 12 -33 35 0
-11 5 12 -33 -35 0
-12 -20 -5 36 37 0
-12 -20 -5 36 -37 0
-12 -20 -5 -36 38 0
-12 -20 -5 -36 -38 0
5 9 4 39 40 0
5 9 4 39 -40 0
5 9 4 -39 41 0
5 9 4 -39 -41 0
13 -6 11 42 43 0
13 -6 11 42 -43 0
13 -6 11 -42 44 0
13 -6 11 -42 -44 0
1 5 -9 45 46 0
1 5 -9 45 -46 0
1 5 -9 -45 47 0
1 5 -9 -45 -47 0
-4 -17 2 48 49 0
-4 -17 2 48 -49 0
-4 -17 2 -48 50 0
-4 -17 2 -48 -50 0
-16 5 -3 51 52 0
-16 5 -3 51 -52 0
-16 5 -3 -51 53 0
-16 5 -3 -51 -53 0
-16 7 -9 54 55 0
-16 7 -9 54 -55 0
-16 7 -9 -54 56 0
-16 7 -9 -54 -56 0
-1 2 -17 57 58 0
-1 2 -17 57 -58 0
-1 2 -17 -57 59 0
-1 2 -17 -57 -59 0
18 -9 17 60 61 0
18 -9 17 60 -61 0
18 -9 17 -60 62 0
18 -9 17 -60 -62 0
4 -2 -20 63 64 0
4 -2 -20 63 -64 0
4 -2 -20 -63 65 0
4 -2 -20 -63 -65 0
-8 -13 -17 66 67 0
-8 -13 -17 66 -67 0
-8 -13 -17 -66 68 0
-8 -13 -17 -66 -68 0
-10 9 -5 69 70 0
-10 9 -5 69 -70 0
-10 9 -5 -69 71 0
-10 9 -5 -69 -71 0
9 -8 16 72 73 0
9 -8 16 72 -73 0
9 -8 16 -72 74 0
9 -8 16 -72 -74 0
-18 17 12 75 76 0
-18 17 12 75 -76 0
-18 17 12 -75 77 0
-18 17 12 -75 -77 0
-17 -6 12 78 79 0
-17 -6 12 78 -79 0
-17 -6 12 -78 80 0
-17 -6 12 -78 -80 0
9 19 -2 81 82 0
9 19 -2 81 -82 0
9 19 -2 -81 83 0
9 19 -2 -81 -83 0
3 -18 2 84 85 0
3 -18 2 84 -85 0
3 -18 2 -84 86 0
3 -18 2 -84 -86 0
-20 5 -17 87 88 0
-20 5 -17 87 -88 0
-20 5 -17 -87 89 0
-20 5 -17 -87 -89 0
18 7 -13 90 91 0
18 7 -13 90 -91 0
18 7 -13 -90 92 0
18 7 -13 -90 -92 0
19 -17 -1 93 94 0
19 -17 -1 93 -94 0
19 -17 -1 -93 95 0
19 -17 -1 -93 -95 0
-19 2 -9 96 97 0
-19 2 -9 96 -97 0
-19 2 -9 -96 98 0
-19 2 -9 -96 -98 0
-14 -8 -15 99 100 0
-14 -8 -15 99 -100 0
-14 -8 -15 -99 101 0
-14 -8 -15 -99 -101 0
5 13 15 102 103 0
5 13 15 102 -103 0
5 13 15 -102 104 0
5 13 15 -102 -104 0
17 -5 -12 105 106 0
17 -5 -12 105 -106 0
17 -5 -12 -105 107 0
17 -5 -12 -105 -107 0
4 12 10 108 109 0
4 12 10 108 -109 0
4 12 10 -108 110 0
4 12 10 -108 -110 0
15 -20 4 111 112 0
15 -20 4 111 -112 0
15 -20 4 -111 113 0
15 -20 4 -111 -113 0
-20 14 16 114 115 0
-20 14 16 114 -115 0
-20 14 16 -114 116 0
-20 14 16 -114 -116 0
-5 -14 3 117 118 0
-5 -14 3 117 -118 0
-5 -14 3 -117 119 0
-5 -14 3 -117 -119 0
-5 -12 15 120 121 0
-5 -12 15 120 -121 0
-5 -12 15 -120 122 0
-5 -12 15 -120 -122 0
-9 3 -19 123 124 0
-9 3 -19 123 -124 0
-9 3 -19 -123 125 0
-9 3 -19 -123 -125 0
1 -20 -4 126 127 0
1 -20 -4 126 -127 0
1 -20 -4 -126 128 0
1 -20 -4 -126 -128 0
-3 13 -9 129 130 0
-3 13 -9 129 -130 0
-3 13 -9 -129 131 0
-3 13 -9 -129 -131 0
2 16 20 132 133 0
2 16 20 132 -133 0
2 16 20 -132 134 0
2 16 20 -132 -134 0
7 2 -4 135 136 0
7 2 -4 135 -136 0
7 2 -4 -135 137 0
7 2 -4 -135 -137 0
11 4 10 138 139 0
11 4 10 138 -139 0
11 4 10 -138 140 0
11 4 10 -138 -140 0
-9 10 13 141 142 0
-9 10 13 141 -142 0
-9 10 13 -141 143 0
-9 10 13 -141 -143 0
-16 2 -13 144 145 0
-16 2 -13 144 -145 0
-16 2 -13 -144 146 0
-16 2 -13 -144 -146 0
-15 19 -11 147 148 0
-15 19 -11 147 -148 0
-15 19 -11 -147 149 0
-15 19 -11 -147 -149 0
3 -10 -5 150 151 0
3 -10 -5 150 -151 0
3 -10 -5 -150 152 0
3 -10 -5 -150 -152 0
14 -3 -4 153 154 0
14 -3 -4 153 -154 0
14 -3 -4 -153 155 0
14 -3 -4 -153 -155 0
13 1 6 156 157 0
13 1 6 156 -157 0
13 1 6 -156 158 0
13 1 6 -156 -158 0
-1 -10 -3 159 160 0
-1 -10 -3 159 -160 0
-1 -10 -3 -159 161 0
-1 -10 -3 -159 -161 0
8 -11 4 162 163 0
8 -11 4 162 -163 0
8 -11 4 -162 164 0
8 -11 4 -162 -164 0
-6 -8 11 165 166 0
-6 -8 11 165 -166 0
-6 -8 11 -165 167 0
-6 -8 11 -165 -167 0
-11 -1 9 168 169 0
-11 -1 9 168 -169 0
-11 -1 9 -168 170 0
-11 -1 9 -168 -170 0
-7 -12 20 171 172 0
-7 -12 20 171 -172 0
-7 -12 20 -171 173 0
-7 -12 20 -171 -173 0
-20 -6 -2 174 175 0
-20 -6 -2 174 -175 0
-20 -6 -2 -174 176 0
-20 -6 -2 -174 -176 0
-17 18 -11 177 178 0
-17 18 -11 177 -178 0
-17 18 -11 -177 179 0
-17 18 -11 -177 -179 0
5 -14 17 180 181 0
5 -14 17 180 -181 0
5 -14 17 -180 182 0
5 -14 17 -180 -182 0
-3 8 2 183 184 0
-3 8 2 183 -184 0
-3 8 2 -183 185 0
-3 8 2 -183 -185 0
6 -16 -19 186 187 0
6 -16 -19 186 -187 0
6 -16 -19 -186 188 0
6 -16 -19 -186 -188 0
-15 13 16 189 190 0
-15 13 16 189 -190 0
-15 13 16 -189 191 0
-15 13 16 -189 -191 0
-8 3 7 192 193 0
-8 3 7 192 -193 0
-8 3 7 -192 194 0
-8 3 7 -192 -194 0
-18 7 4 195 196 0
-18 7 4 195 -196 0
-18 7 4 -195 197 0
-18 7 4 -195 -197 0
2 12 -10 198 199 0
2 12 -10 198 -199 0
2 12 -10 -198 200 0
2 12 -10 -198 -200 0
10 -11 15 201 202 0
10 -11 15 201 -202 0
10 -11 15 -201 203 0
10 -11 15 -201 -203 0
-19 10 20 204 205 0
-19 10 20 204 -205 0
-19 10 20 -204 206 0
-19 10 20 -204 -206 0
4 -14 8 207 208 0
4 -14 8 207 -208 0
4 -14 8 -207 209 0
4 -14 8 -207 -209 0
20 11 16 210 211 0
20 11 16 210 -211 0
20 11 16 -210 212 0
20 11 16 -210 -212 0
-5 7 17 213 214 0
-5 7 17 213 -214 0
-5 7 17 -213 215 0
-5 7 17 -213 -215 0
14 19 13 216 217 0
14 19 13 216 -217 0
14 19 13 -216 218 0
14 19 13 -216 -218 0
-16 -6 18 219 220 0
-16 -6 18 219 -220 0
-16 -6 18 -219 221 0
-16 -6 18 -219 -221 0
2 -3 17 222 223 0
2 -3 17 222 -223 0
2 -3 17 -222 224 0
2 -3 17 -222 -224 0
-19 13 -14 225 226 0
-19 13 -14 225 -226 0
-19 13 -14 -225 227 0
-19 13 -14 -225 -227 0
-20 -10 -15 228 229 0
-20 -10 -15 228 -229 0
-20 -10 -15 -228 230 0
-20 -10 -15 -228 -230 0
8 -17 -16 231 232 0
8 -17 -16 231 -232 0
8 -17 -16 -231 233 0
8 -17 -16 -231 -233 0
9 -13 8 234 235 0
9 -13 8 234 -235 0
9 -13 8 -234 236 0
9 -13 8 -234 -236 0
12 13 -18 237 238 0
12 13 -18 237 -238 0
12 13 -18 -237 239 0
12 13 -18 -237 -239 0
-16 20 10 240 241 0
-16 20 10 240 -241 0
-16 20 10 -240 242 0
-16 20 10 -240 -242 0
11 -13 -3 243 244 0
11 -13 -3 243 -244 0
11 -13 -3 -243 245 0
11 -13 -3 -243 -245 0
12 -8 6 246 247 0
12 -8 6 246 -247 0
12 -8 6 -246 248 0
12 -8 6 -246 -248 0
19 1 -15 249 250 0
19 1 -15 249 -250 0
19 1 -15 -249 251 0
19 1 -15 -249 -251 0
-15 1 3 252 253 0
-15 1 3 252 -253 0
-15 1 3 -252 254 0
-15 1 3 -252 -254 0
-7 -20 3 255 256 0
-7 -20 3 255 -256 0
-7 -20 3 -255 257 0
-7 -20 3 -255 -257 0
5 2 19 258 259 0
5 2 19 258 -259 0
5 2 19 -258 260 0
5 2 19 -258 -260 0
5 18 -11 261 262 0
5 18 -11 261 -262 0
5 18 -11 -261 263 0
5 18 -11 -261 -263 0
4 -10 -7 264 265 0
4 -10 -7 264 -265 0
4 -10 -7 -264 266 0
4 -10 -7 -264 -266 0
-4 18 20 267 268 0
-4 18 20 267 -268 0
-4 18 20 -267 269 0
-4 18 20 -267 -269 0
-2 -6 18 270 271 0
-2 -6 18 270 -271 0
-2 -6 18 -270 272 0
-2 -6 18 -270 -272 0
-14 -10 -9 273 274 0
-14 -10 -9 273 -274 0
-14 -10 -9 -273 275 0
-14 -10 -9 -273 -275 0
17 -3 2 276 277 0
17 -3 2 276 -277 0
17 -3 2 -276 278 0
17 -3 2 -276 -278 0
-14 -1 -16 279 280 0
-14 -1 -16 279 -280 0
-14 -1 -16 -279 281 0
-14 -1 -16 -279 -281 0
-10 -17 -14 282 283 0
-10 -17 -14 282 -283 0
-10 -17 -14 -282 284 0
-10 -17 -14 -282 -284 0
-14 -4 -6 285 286 0
-14 -4 -6 285 -286 0
-14 -4 -6 -285 287 0
-14 -4 -6 -285 -287 0
6 -4 -19 288 289 0
6 -4 -19 288 -289 0
6 -4 -19 -288 290 0
6 -4 -19 -288 -290 0
1 -18 17 291 292 0
1 -18 17 291 -292 0
1 -18 17 -291 293 0
1 -18 17 -291 -293 0
294 295 297 301 309 0
294 295 297 301 -309 0
294 295 297 -301 310 0
294 295 297 -301 -310 0
294 295 -297 302 311 0
294 295 -297 302 -311 0
294 295 -297 -302 312 0
294 295 -297 -302 -312 0
294 -295 298 303 313 0
294 -295 298 303 -313 0
294 -295 298 -303 314 0
294 -295 298 -303 -314 0
294 -295 -298 304 315 0
294 -295 -298 304 -315 0
294 -295 -298 -304 316 0
294 -295 -298 -304 -316 0
-294 296 299 305 317 0
-294 296 299 305 -317 0
-294 296 299 -305 318 0
-294 296 299 -305 -318 0
-294 296 -299 306 319 0
-294 296 -299 306 -319 0
-294 296 -299 -306 320 0
-294 296 -299 -306 -320 0
-294 -296 300 307 321 0
-294 -296 300 307 -321 0
-294 -296 300 -307 322 0
-294 -296 300 -307 -322 0
-294 -296 -300 308 323 0
-294 -296 -300 308 -323 0
-294 -296 -300 -308 324 0
-294 -296 -300 -308 -324 0
325 326 328 332 340 0
325 326 328 332 -340 0
325 326 328 -332 341 0
325 326 328 -332 -341 0
325 326 -328 333 342 0
325 326 -328 333 -342 0
325 326 -328 -333 343 0
325 326 -328 -333 -343 0
325 -326 329 334 344 0
325 -326 329 334 -344 0
325 -326 329 -334 345 0
325 -326 329 -334 -345 0
325 -326 -329 335 346 0
325 -326 -329 335 -346 0
325 -326 -329 -335 347 0
325 -326 -329 -335 -347 0
-325 327 330 336 348 0
-325 327 330 336 -348 0
-325 327 330 -336 349 0
-325 327 330 -336 -349 0
-325 327 -330 337 350 0
-325 327 -330 337 -350 0
-325 327 -330 -337 351 0
-325 327 -330 -337 -351 0
-325 -327 331 338 352 0
-325 -327 331 338 -352 0
-325 -327 331 -338 353 0
-325 -327 331 -338 -353 0
-325 -327 -331 339 354 0
-325 -327 -331 339 -354 0
-325 -327 -331 -339 355 0
-325 -327 -331 -339 -355 0
356 357 359 363 371 0
356 357 359 363 -371 0
356 357 359 -363 372 0
356 357 359 -363 -372 0
356 357 -359 364 373 0
356 357 -359 364 -373 0
356 357 -359 -364 374 0
356 357 -359 -364 -374 0
356 -357 360 365 375 0
356 -357 360 365 -375 0
356 -357 360 -365 376 0
356 -357 360 -365 -376 0
356 -357 -360 366 377 0
356 -357 -360 366 -377 0
356 -357 -360 -366 378 0
356 -357 -360 -366 -378 0
-356 358 361 367 379 0
-356 358 361 367 -379 0
-356 358 361 -367 380 0
-356 358 361 -367 -380 0
-356 358 -361 368 381 0
-356 358 -361 368 -381 0
-356 358 -361 -368 382 0
-356 358 -361 -368 -382 0
-356 -358 362 369 383 0
-356 -358 362 369 -383 0
-356 -358 362 -369 384 0
-356 -358 362 -369 -384 0
-356 -358 -362 370 385 0
-356 -358 -362 370 -385 0
-356 -358 -362 -370 386 0
-356 -358 -362 -370 -386 0

